(set-logic ALL)
(declare-fun var0 () String)
(assert (str.in_re var0 (re.++ (re.* (re.union (str.to_re "0") (str.to_re "111"))) (re.++ (re.+ (re.* (str.to_re "22"))) (re.++ (re.union (re.+ (str.to_re "333")) (re.+ (str.to_re "4"))) (re.++ (re.+ (re.* (str.to_re "5"))) (re.++ (re.union (re.+ (str.to_re "6")) (re.+ (str.to_re "77"))) (re.++ (re.+ (re.union (str.to_re "888") (str.to_re "99"))) (re.++ (re.* (re.* (str.to_re "aa"))) (re.++ (re.+ (re.+ (str.to_re "b"))) (re.++ (re.+ (re.union (str.to_re "cc") (str.to_re "ddd"))) (re.++ (re.union (re.+ (str.to_re "eee")) (re.+ (str.to_re "fff"))) (re.++ (re.union (re.+ (str.to_re "g")) (re.+ (str.to_re "hhh"))) (re.++ (re.+ (re.union (str.to_re "i") (str.to_re "jjj"))) (re.++ (re.+ (re.* (str.to_re "k"))) (re.++ (re.* (re.+ (str.to_re "l"))) (re.++ (re.* (re.* (str.to_re "mm"))) (re.++ (re.union (re.+ (str.to_re "nn")) (re.+ (str.to_re "ooo"))) (re.++ (re.+ (re.+ (str.to_re "p"))) (re.++ (re.union (re.* (str.to_re "qq")) (re.* (str.to_re "rrr"))) (re.++ (re.* (re.+ (str.to_re "s"))) (re.++ (re.union (re.* (str.to_re "t")) (re.* (str.to_re "uuu"))) (re.++ (re.* (re.+ (str.to_re "v"))) (re.++ (re.* (re.* (str.to_re "www"))) (re.++ (re.* (re.+ (str.to_re "xx"))) (re.++ (re.union (re.union (str.to_re "yy") (str.to_re "z")) (re.union (str.to_re "A") (str.to_re "B"))) (re.++ (re.* (re.+ (str.to_re "CC"))) (re.++ (re.* (re.* (str.to_re "DDD"))) (re.++ (re.+ (re.+ (str.to_re "EEE"))) (re.++ (re.+ (re.+ (str.to_re "F"))) (re.++ (re.union (re.union (str.to_re "G") (str.to_re "H")) (re.union (str.to_re "II") (str.to_re "JJ"))) (re.++ (re.* (re.union (str.to_re "KKK") (str.to_re "L"))) (re.union (re.union (str.to_re "MM") (str.to_re "NN")) (re.union (str.to_re "O") (str.to_re "PPP")))))))))))))))))))))))))))))))))))
(assert (not (str.in_re var0 (re.++ (re.* (re.* (str.to_re "0"))) (re.++ (re.+ (re.* (str.to_re "1"))) (re.++ (re.union (re.* (str.to_re "222")) (re.* (str.to_re "333"))) (re.++ (re.* (re.+ (str.to_re "4"))) (re.++ (re.* (re.* (str.to_re "55"))) (re.++ (re.union (re.+ (str.to_re "66")) (re.+ (str.to_re "77"))) (re.++ (re.+ (re.* (str.to_re "888"))) (re.++ (re.* (re.* (str.to_re "9"))) (re.++ (re.union (re.+ (str.to_re "aaa")) (re.+ (str.to_re "bbb"))) (re.++ (re.+ (re.union (str.to_re "ccc") (str.to_re "d"))) (re.++ (re.* (re.* (str.to_re "ee"))) (re.++ (re.union (re.* (str.to_re "ff")) (re.* (str.to_re "ggg"))) (re.++ (re.union (re.+ (str.to_re "h")) (re.+ (str.to_re "ii"))) (re.++ (re.* (re.union (str.to_re "j") (str.to_re "k"))) (re.++ (re.* (re.+ (str.to_re "l"))) (re.++ (re.+ (re.* (str.to_re "mm"))) (re.++ (re.+ (re.* (str.to_re "n"))) (re.++ (re.union (re.+ (str.to_re "oo")) (re.+ (str.to_re "ppp"))) (re.++ (re.union (re.+ (str.to_re "q")) (re.+ (str.to_re "rrr"))) (re.++ (re.* (re.+ (str.to_re "s"))) (re.++ (re.+ (re.+ (str.to_re "ttt"))) (re.++ (re.+ (re.union (str.to_re "uuu") (str.to_re "vv"))) (re.++ (re.* (re.* (str.to_re "w"))) (re.++ (re.+ (re.* (str.to_re "xxx"))) (re.++ (re.union (re.union (str.to_re "yyy") (str.to_re "zz")) (re.union (str.to_re "AA") (str.to_re "BBB"))) (re.++ (re.* (re.* (str.to_re "C"))) (re.++ (re.+ (re.union (str.to_re "DDD") (str.to_re "EEE"))) (re.++ (re.* (re.+ (str.to_re "FF"))) (re.++ (re.* (re.* (str.to_re "GG"))) (re.++ (re.union (re.* (str.to_re "HHH")) (re.* (str.to_re "I"))) (re.+ (re.* (str.to_re "JJ"))))))))))))))))))))))))))))))))))))
(check-sat)